StringID Type x y demand ReadyTime DueDate ServiceTime
D0 d 40 50.0 0.0 0.0 960.0 0.0
Dt d 40 50.0 0.0 0.0 960.0 0.0
C66 c3 41 37.0 16.0 383.0 905.0 10.0
C37 c2 65 82.0 10.0 59.0 632.0 10.0
C96 c3 55 54.0 26.0 142.0 532.0 10.0
C41 c3 58 75.0 20.0 73.0 561.0 10.0
C32 c3 87 30.0 10.0 69.0 539.0 10.0
P0 p 75 53.0 0.0 0.0 960.0 45.0
param CV := 1000.0 nan nan nan nan
param V := 1.0 nan nan nan nan
